32 165 44 98 77 30 56 71 134 160 75 79 193 156 133 126 108 124 145 45 137 119 179 174 129 80 33 148 185 37 65 51 7 120 189 100 194 73 111 60 170 6 197 131 66 74 158 35 128 107 198 175 196 190 28 127 57 102 110 192 21 184 172 41 22 109 167 10 88 89 16 139 138 69 152 48 169 97 166 96 104 31 93 161 168 49 0 125 199 155 180 146 78 12 178 87 26 23 164 40 83 136 171 68 106 183 157 151 15 62 153 14 72 38 90 53 76 42 70 187 122 121 92 3 154 43 59 52 123 176 4 117 61 34 36 195 18 191 50 118 99 29 143 1 47 140 91 116 135 144 177 54 112 86 25 162 130 147 94 150 55 20 46 27 11 114 132 105 103 182 81 163 113 24 19 181 9 141 8 101 115 2 82 39 5 58 149 63 84 17 188 142 95 85 159 173 64 186 13 67